peakDumbCharging = 22200; 
Machine = anon_enum(16); 
machineSpeed = [3700,3700,3700,3700,3700,3700,3700,3700,3700,3700,3700,3700,3700,3700,3700,3700]; 
machineLoad = [3700,3700,3700,3700,3700,3700,3700,3700,3700,3700,3700,3700,3700,3700,3700,3700]; 
Car = anon_enum(24); 
demandCar = [2560,3640,920,1680,5240,1160,8440,2200,11920,30680,9200,1960,13560,6240,3400,21480,35760,25080,3360,3960,17680,15720,17400,14000]; 
arrivalCar = [70,69,68,67,66,66,66,64,64,63,62,62,61,57,54,51,46,46,43,40,33,33,30,30]; 
departureCar = [73,71,70,69,69,67,71,66,68,81,66,64,68,60,56,65,63,56,46,44,40,45,38,35]; 
